p cnf 30 30
-15 -27 -5 0
-16 -21 -20 0
13 28 24 0
14 3 1 0
23 -1 -4 0
10 18 -4 0
-26 8 28 0
-7 28 18 0
11 -18 10 0
-2 -20 6 0
-30 -6 -26 0
-15 -10 -4 0
8 14 7 0
8 28 -13 0
-24 -10 30 0
13 -24 25 0
8 -24 -1 0
-26 16 9 0
13 12 -1 0
-15 -5 -20 0
-2 -26 -9 0
-26 -21 -14 0
-27 26 24 0
-11 -28 17 0
-21 -12 -17 0
-8 21 -20 0
-21 -10 -3 0
29 -5 17 0
21 20 16 0
-7 27 -23 0
